unknown system                          
   1.00000000000000     
    -1.3500239224370854   -5.7397813904306858   -2.3963660073685373
     7.4663425523177835    0.8031818914460713   -4.7505911469207023
     9.1130526298887755   -5.3616338952574294   14.5719266223070871
   Fe   Li   O 
    14    42    49
Direct
  0.2218526637656501  0.9541892829198414  0.0198939711712387
  0.7693430722286776  0.3950500935307811  0.0915826114698095
  0.3465135934719650  0.5352459524257033  0.0745782076893128
  0.5719235601384375  0.0723488875516791  0.1305724914279840
  0.5621528814647246  0.8196201259318122  0.5415019340998901
  0.8976877961200621  0.2573211643639636  0.2348935611748166
  0.8101739178354523  0.8078135271517645  0.4152243947186099
  0.1175335059768726  0.1267410954526828  0.3943390684069151
  0.0333579838997571  0.4191998331405443  0.4821834588617542
  0.4537726184364098  0.6920571595416174  0.8023322293507300
  0.8767126945925960  0.1486360021141844  0.5498178307231870
  0.2542249704755913  0.3877939454399633  0.8371338902115910
  0.8602339927242125  0.5467546398196903  0.8366597649608152
  0.4045557244772919  0.2496082238521718  0.9860217924690208
  0.5727355474134628  0.8028352299739221  0.0507499779906849
  0.6856151967149475  0.6609909833159041  0.1743174468869405
  0.6180532471930085  0.9251509327377603  0.2560161423910618
  0.3220474983801431  0.8048465776213432  0.1636521190183882
  0.9587178082432821  0.6477816199570826  0.0384478096242993
  0.9811085105211260  0.9825077087119111  0.1557414997305198
  0.5101265502722300  0.4002438871411223  0.2284391930476113
  0.4526154822497431  0.6536105770676880  0.3020377038991578
  0.3790368675194965  0.9186536344951304  0.3716766347900064
  0.1640750647163658  0.2347108842199605  0.1138907656727086
  0.1242643719842568  0.5140820518889054  0.2092101592120823
  0.0453846937339927  0.8062426667071454  0.2995097297035513
  0.8007965490633534  0.1136568979094055  0.9879058582443986
  0.6508745515093337  0.2733961131831813  0.3691648949239384
  0.6049206904924488  0.5352736993444746  0.4373129352475414
  0.3507140140538490  0.1238923330353742  0.2687891967361213
  0.2695261484289538  0.4184178457657209  0.3401240856708486
  0.2177266869428272  0.6688932892640939  0.4267939701340019
  0.1272113891019597  0.9447076362103044  0.5275713134085955
  0.8399127785728457  0.5485884110423228  0.3223774226575238
  0.7629100500814122  0.4368490190557028  0.5848395630214378
  0.6998838847258504  0.7128322006916927  0.6820531908376517
  0.6784293737061325  0.9525218975005249  0.7843863000800221
  0.4381863426428364  0.2855259927860013  0.4893307943434054
  0.3724911757985400  0.5672188737385255  0.5817327763925265
  0.3129754180527214  0.8163355763573926  0.6638930510246120
  0.9875835229770739  0.6738256064880479  0.5650050123480157
  0.9067861596130092  0.9554536651454989  0.6662410635026073
  0.4428741419908903  0.1012866537369275  0.6321140896386185
  0.4830684395233686  0.4182927531375218  0.7197376740811283
  0.4396265011776095  0.9522812040684860  0.8922883510278558
  0.1963463127232454  0.2941282801909855  0.6348744251694806
  0.1244354385519647  0.5671252840718057  0.6933597380377043
  0.0522250857755868  0.8241811057628540  0.7819403150800234
  0.6704476803804477  0.2485156791274847  0.8731542631850826
  0.6009142741114087  0.5496729286218137  0.9483761512402333
  0.2445871606701186  0.0881562435733417  0.7712207364667338
  0.2115581726664117  0.6852415828217493  0.9321603666133916
  0.9292684896417602  0.2314652413233984  0.7424593315358083
  0.8150502852846389  0.8209854721522498  0.9015918050849142
  0.0392651675826639  0.0866947681082405  0.8836864007456523
  0.9957339552742674  0.4028143984227505  0.9650317359557536
  0.2518995672718634  0.7497832615913559  0.0490457216355304
  0.4611269042810078  0.3092557134579420  0.0916507129002604
  0.3907288713438062  0.5887638139971693  0.1754996897126438
  0.2996900684804717  0.8808231664017701  0.2641008196835368
  0.0574759516308069  0.4616495665412125  0.0800280204711324
  0.6467468822344400  0.5942029694004703  0.0650709536238505
  0.6959023493490950  0.8832290107104951  0.1545704453824117
  0.2576844125463262  0.0117944400521560  0.1240143277319316
  0.1785256029094577  0.2891942760429148  0.2317894929305066
  0.1532721208952422  0.6185556156867955  0.3108951808350230
  0.0705982445469560  0.9147606592723595  0.4039356588880689
  0.8609132662945272  0.1815393188667457  0.1301095803372443
  0.8082344905161020  0.4535461192049557  0.2021811319464439
  0.7444145256465530  0.7751611665040995  0.3150389536313616
  0.5236694198145572  0.0213992018602178  0.0170489001852592
  0.3952268509317040  0.1388252673448101  0.3808236372099589
  0.2945014409259372  0.4660409426882632  0.4568728631520536
  0.2836276798051209  0.7728096548981124  0.5435400500426858
  0.9459018753311021  0.2643388707213860  0.3411650456239123
  0.9183220888820514  0.6112783746089800  0.4452239754597735
  0.8055254506082263  0.9390602166410208  0.5074879568722381
  0.6267627796322970  0.1538732054442322  0.2369302872261206
  0.5599431580992007  0.4612667211610360  0.3332712697851385
  0.5280964977420118  0.7654294418112810  0.4333455711692439
  0.5211782869775732  0.3100240158690383  0.6161835724751825
  0.4213425096232408  0.6236704679164750  0.7013302813344493
  0.3677839869321258  0.8854129205436432  0.7752009043142268
  0.1272835801506565  0.2071708273915419  0.4940507914734794
  0.0851369470656629  0.4678753179227941  0.5872467039418794
  0.9992627309476052  0.7538465093252958  0.6680748619641969
  0.7554889993031682  0.3171700728851557  0.4875318526985273
  0.6817798509888439  0.6407461826802759  0.5757086871056302
  0.5914109919995577  0.9240074222687518  0.6306844472789098
  0.1016507477353325  0.0843560382012908  0.6192984678768882
  0.2325969099061619  0.3019463154022139  0.7401427485594475
  0.1455458314783421  0.5909590520428474  0.8111671916708694
  0.1320724760591122  0.8965847014623086  0.9251302131281250
  0.7369478190539283  0.2402277693893262  0.6381805048626925
  0.7705245564390318  0.7275293029188615  0.7968545931133819
  0.3513555630876297  0.2000000802908913  0.8827483288312602
  0.3041430997727224  0.4569785385187671  0.9656639582992009
  0.9508388070020127  0.0317231191574277  0.7728157661111100
  0.9013047915975301  0.6082554317098230  0.9365746179792949
  0.9386273555133177  0.3470706716601044  0.8442656377394114
  0.5593266907479002  0.4752534727310967  0.8278707732692493
  0.4994337424391743  0.7409353443702033  0.9018488302504228
  0.1302037565904599  0.1536943091460956  0.0000660904909972
  0.7375529403561127  0.0394828207818095  0.8828328273500082
  0.6969165228467001  0.3126635607920577  0.9840261503065363
 
  0.00000000E+00  0.00000000E+00  0.00000000E+00
  0.00000000E+00  0.00000000E+00  0.00000000E+00
  0.00000000E+00  0.00000000E+00  0.00000000E+00
  0.00000000E+00  0.00000000E+00  0.00000000E+00
  0.00000000E+00  0.00000000E+00  0.00000000E+00
  0.00000000E+00  0.00000000E+00  0.00000000E+00
  0.00000000E+00  0.00000000E+00  0.00000000E+00
  0.00000000E+00  0.00000000E+00  0.00000000E+00
  0.00000000E+00  0.00000000E+00  0.00000000E+00
  0.00000000E+00  0.00000000E+00  0.00000000E+00
  0.00000000E+00  0.00000000E+00  0.00000000E+00
  0.00000000E+00  0.00000000E+00  0.00000000E+00
  0.00000000E+00  0.00000000E+00  0.00000000E+00
  0.00000000E+00  0.00000000E+00  0.00000000E+00
  0.00000000E+00  0.00000000E+00  0.00000000E+00
  0.00000000E+00  0.00000000E+00  0.00000000E+00
  0.00000000E+00  0.00000000E+00  0.00000000E+00
  0.00000000E+00  0.00000000E+00  0.00000000E+00
  0.00000000E+00  0.00000000E+00  0.00000000E+00
  0.00000000E+00  0.00000000E+00  0.00000000E+00
  0.00000000E+00  0.00000000E+00  0.00000000E+00
  0.00000000E+00  0.00000000E+00  0.00000000E+00
  0.00000000E+00  0.00000000E+00  0.00000000E+00
  0.00000000E+00  0.00000000E+00  0.00000000E+00
  0.00000000E+00  0.00000000E+00  0.00000000E+00
  0.00000000E+00  0.00000000E+00  0.00000000E+00
  0.00000000E+00  0.00000000E+00  0.00000000E+00
  0.00000000E+00  0.00000000E+00  0.00000000E+00
  0.00000000E+00  0.00000000E+00  0.00000000E+00
  0.00000000E+00  0.00000000E+00  0.00000000E+00
  0.00000000E+00  0.00000000E+00  0.00000000E+00
  0.00000000E+00  0.00000000E+00  0.00000000E+00
  0.00000000E+00  0.00000000E+00  0.00000000E+00
  0.00000000E+00  0.00000000E+00  0.00000000E+00
  0.00000000E+00  0.00000000E+00  0.00000000E+00
  0.00000000E+00  0.00000000E+00  0.00000000E+00
  0.00000000E+00  0.00000000E+00  0.00000000E+00
  0.00000000E+00  0.00000000E+00  0.00000000E+00
  0.00000000E+00  0.00000000E+00  0.00000000E+00
  0.00000000E+00  0.00000000E+00  0.00000000E+00
  0.00000000E+00  0.00000000E+00  0.00000000E+00
  0.00000000E+00  0.00000000E+00  0.00000000E+00
  0.00000000E+00  0.00000000E+00  0.00000000E+00
  0.00000000E+00  0.00000000E+00  0.00000000E+00
  0.00000000E+00  0.00000000E+00  0.00000000E+00
  0.00000000E+00  0.00000000E+00  0.00000000E+00
  0.00000000E+00  0.00000000E+00  0.00000000E+00
  0.00000000E+00  0.00000000E+00  0.00000000E+00
  0.00000000E+00  0.00000000E+00  0.00000000E+00
  0.00000000E+00  0.00000000E+00  0.00000000E+00
  0.00000000E+00  0.00000000E+00  0.00000000E+00
  0.00000000E+00  0.00000000E+00  0.00000000E+00
  0.00000000E+00  0.00000000E+00  0.00000000E+00
  0.00000000E+00  0.00000000E+00  0.00000000E+00
  0.00000000E+00  0.00000000E+00  0.00000000E+00
  0.00000000E+00  0.00000000E+00  0.00000000E+00
  0.00000000E+00  0.00000000E+00  0.00000000E+00
  0.00000000E+00  0.00000000E+00  0.00000000E+00
  0.00000000E+00  0.00000000E+00  0.00000000E+00
  0.00000000E+00  0.00000000E+00  0.00000000E+00
  0.00000000E+00  0.00000000E+00  0.00000000E+00
  0.00000000E+00  0.00000000E+00  0.00000000E+00
  0.00000000E+00  0.00000000E+00  0.00000000E+00
  0.00000000E+00  0.00000000E+00  0.00000000E+00
  0.00000000E+00  0.00000000E+00  0.00000000E+00
  0.00000000E+00  0.00000000E+00  0.00000000E+00
  0.00000000E+00  0.00000000E+00  0.00000000E+00
  0.00000000E+00  0.00000000E+00  0.00000000E+00
  0.00000000E+00  0.00000000E+00  0.00000000E+00
  0.00000000E+00  0.00000000E+00  0.00000000E+00
  0.00000000E+00  0.00000000E+00  0.00000000E+00
  0.00000000E+00  0.00000000E+00  0.00000000E+00
  0.00000000E+00  0.00000000E+00  0.00000000E+00
  0.00000000E+00  0.00000000E+00  0.00000000E+00
  0.00000000E+00  0.00000000E+00  0.00000000E+00
  0.00000000E+00  0.00000000E+00  0.00000000E+00
  0.00000000E+00  0.00000000E+00  0.00000000E+00
  0.00000000E+00  0.00000000E+00  0.00000000E+00
  0.00000000E+00  0.00000000E+00  0.00000000E+00
  0.00000000E+00  0.00000000E+00  0.00000000E+00
  0.00000000E+00  0.00000000E+00  0.00000000E+00
  0.00000000E+00  0.00000000E+00  0.00000000E+00
  0.00000000E+00  0.00000000E+00  0.00000000E+00
  0.00000000E+00  0.00000000E+00  0.00000000E+00
  0.00000000E+00  0.00000000E+00  0.00000000E+00
  0.00000000E+00  0.00000000E+00  0.00000000E+00
  0.00000000E+00  0.00000000E+00  0.00000000E+00
  0.00000000E+00  0.00000000E+00  0.00000000E+00
  0.00000000E+00  0.00000000E+00  0.00000000E+00
  0.00000000E+00  0.00000000E+00  0.00000000E+00
  0.00000000E+00  0.00000000E+00  0.00000000E+00
  0.00000000E+00  0.00000000E+00  0.00000000E+00
  0.00000000E+00  0.00000000E+00  0.00000000E+00
  0.00000000E+00  0.00000000E+00  0.00000000E+00
  0.00000000E+00  0.00000000E+00  0.00000000E+00
  0.00000000E+00  0.00000000E+00  0.00000000E+00
  0.00000000E+00  0.00000000E+00  0.00000000E+00
  0.00000000E+00  0.00000000E+00  0.00000000E+00
  0.00000000E+00  0.00000000E+00  0.00000000E+00
  0.00000000E+00  0.00000000E+00  0.00000000E+00
  0.00000000E+00  0.00000000E+00  0.00000000E+00
  0.00000000E+00  0.00000000E+00  0.00000000E+00
  0.00000000E+00  0.00000000E+00  0.00000000E+00
  0.00000000E+00  0.00000000E+00  0.00000000E+00
  0.00000000E+00  0.00000000E+00  0.00000000E+00
