unknown system                          
   1.00000000000000     
    -1.3430854578815503   -5.7489704693262214   -2.3843646548360193
     7.4892585987948328    0.7303859758286203   -4.5523420204253000
     9.3257705994266402   -5.5337397563362689   14.9342778054343075
   Fe   Li   O 
    14    42    49
Direct
  0.2963832810542942  0.9401310093057774  0.0445248256313688
  0.8479059748247419  0.3770268638722207  0.1131023597046358
  0.4296146334304792  0.5172173791635413  0.0973587790112047
  0.6445047773429611  0.0597879662247904  0.1523645940216868
  0.6548431764603875  0.8038617372017128  0.5594992361765256
  0.9859655849432291  0.2270225012593511  0.2523863989550860
  0.8893412302946538  0.7593225513399045  0.4343144488670994
  0.1647113086559357  0.0755260681066281  0.3871933343808311
  0.1146077255736460  0.3871194088902656  0.5032233008679919
  0.5419100917724063  0.6872385992928675  0.8318725540166363
  0.9335248555885270  0.0955353459616940  0.5490525653998285
  0.3317164482314065  0.3807670671776764  0.8682845723171388
  0.9427041930461999  0.5403197943467911  0.8669350226754502
  0.4854474551012141  0.2332276473846632  0.0094652651975518
  0.6547400330640912  0.7907280523687081  0.0654767249893314
  0.7685268946098319  0.6393847530665867  0.1919973885464724
  0.8038552645818891  0.9292928664237172  0.2763622884803503
  0.4449976853168009  0.7863996514979662  0.1708340225033630
  0.0421406737363723  0.6332043304891959  0.0623537577762361
  0.0550877300900004  0.9636577599072101  0.1811810517283876
  0.5843195381469574  0.3744618848629395  0.2390768115823385
  0.5365623608936290  0.6170167465573033  0.3139069215152114
  0.4771461741300655  0.8998546011164760  0.4124742955571458
  0.2378914611473601  0.2186961295009903  0.1334745646697477
  0.2032314745546192  0.4972509746650174  0.2261644742611580
  0.1110117411030749  0.7792586834429499  0.3212410250377475
  0.8870500892831950  0.1030196894748227  0.0143996286904007
  0.7036686901365846  0.2273630749758941  0.3598785732019569
  0.6740262247513118  0.4824496613521900  0.4523277239907911
  0.3939818004166959  0.0990622356736552  0.2752261211232681
  0.3271977135258323  0.3817476868726495  0.3516547270586960
  0.2947961986520904  0.6187898679808962  0.4282146858171863
  0.2291897721784387  0.9119353581613170  0.5248867495108911
  0.9338996688792087  0.5015294171722069  0.3418518317335650
  0.8422920890068893  0.4235918159289534  0.6042983803149233
  0.7988907350741353  0.6756582238277490  0.7114671334899136
  0.7693576855613327  0.9498697055712860  0.8149601322310984
  0.5049681564016599  0.2077620444167785  0.4864444262354521
  0.4381508430096895  0.5812529411453174  0.6189475771878182
  0.3707217827513495  0.7960400300220166  0.7030070443856198
  0.0456599147889224  0.6826154611174637  0.6025990489673992
  0.0360343764984273  0.9550702814047813  0.6966772858214544
  0.4461379999695263  0.0518087675476547  0.6238183710677376
  0.5594181817311872  0.4105323255721078  0.7556636946876976
  0.5198079257155047  0.9490508190646322  0.9163382208267444
  0.2430292815450185  0.2875107725228113  0.6629436461164343
  0.2079706876716628  0.5570840752181434  0.7350748630421126
  0.1342292570934299  0.8161216873054832  0.8056713733466314
  0.7502587481630284  0.2407608497894712  0.9015379365926063
  0.6836790136759260  0.5355108478528656  0.9748228297764704
  0.3387621107686678  0.0951100104005067  0.8028830632407122
  0.2956647810004264  0.6750109274521520  0.9572978211076648
  0.9955106085188232  0.2330879220566618  0.7761819683032434
  0.9023407304601183  0.8143099783370867  0.9280493362318207
  0.1249840516005687  0.0794898674590798  0.9105047577928276
  0.0753558703347777  0.3886272897004254  0.9917612478151449
  0.3382608292890140  0.7329847802405576  0.0692205139869796
  0.5449288640233940  0.2975709220484083  0.1189920821123486
  0.4727291014945313  0.5780102351030654  0.1961454208876303
  0.1053071677943613  0.9981606186075720  0.2899498880484018
  0.1377893376904602  0.4448367643435702  0.1025939964491803
  0.7294989742530450  0.5803046699980901  0.0865711063589986
  0.7594831884157758  0.8631965520111354  0.1736243170222612
  0.3364814402546892  0.9863330317436247  0.1510885355242240
  0.2596939534105317  0.2822420488879578  0.2466823606110459
  0.2361030366954708  0.5929739519719931  0.3236447984111159
  0.1638805418704605  0.8622860784186850  0.4216267348848437
  0.9377478186282029  0.1610965086198985  0.1499698986575748
  0.8874482757509365  0.4327869275405530  0.2180332630765372
  0.8031900774476585  0.7546177489704423  0.3368393826741343
  0.5979338759504996  0.0139255440992872  0.0411873627980968
  0.4586982167332170  0.1043623434780796  0.3879046855440208
  0.3690432781315443  0.4189490911289179  0.4736586350887472
  0.4054917697194845  0.8042096772285388  0.5966303071759229
  0.0216893494463824  0.2542994806521361  0.3568060571332350
  0.9910300673283909  0.5606174185207714  0.4517372691867726
  0.9389095840619350  0.8531653512583840  0.5310113100581565
  0.6988545110361331  0.1361340568824633  0.2566086390677781
  0.6297450992203268  0.4281842720007701  0.3472161055315107
  0.6043292175470346  0.7317796993036687  0.4539885824600870
  0.7788718189036422  0.3144861448969010  0.6967917906049017
  0.5066693608779517  0.6159924223976555  0.7328120836329515
  0.4650582476523425  0.8822837624790320  0.8026148080011597
  0.1597360483306570  0.1383704329225866  0.4864355263077837
  0.1677208364127772  0.4577022993404783  0.6011178916635440
  0.0788775849477693  0.7460214963269750  0.7013915558653947
  0.8378173014628710  0.2964609471523941  0.5169965204156053
  0.7284799261774686  0.6262313166858953  0.5998704712082676
  0.6411166886694935  0.0223929623225995  0.5542041722565313
  0.1391404720675996  0.0903745982894349  0.6301395079497991
  0.2847990752326259  0.3195936271695864  0.7673609039269517
  0.2297342748130357  0.5896369743685006  0.8442924828177153
  0.2161001498098186  0.8876951268039742  0.9514968263239539
  0.5809980776894199  0.2263913466172889  0.6865877771382149
  0.8558631341014322  0.7208404723541032  0.8254719647571138
  0.4295072232186794  0.1859995356801008  0.9026608912315494
  0.3850221856198995  0.4412181200111374  0.9883422402947162
  0.0370721285010344  0.0278159004452428  0.7967605940195913
  0.9824404789637773  0.6011741368613573  0.9631503418465722
  0.0197007198872571  0.3394110251722944  0.8759786855928612
  0.6387914739912826  0.4696168516560225  0.8583426878570160
  0.5862599195519825  0.7360953741888909  0.9286046533449416
  0.2010411413204397  0.1349975288200599  0.0276395440291094
  0.8248754054154206  0.0320826931480352  0.9101886980788003
  0.7888443333286289  0.3047670220268801  0.0111431945064916
 
  0.00000000E+00  0.00000000E+00  0.00000000E+00
  0.00000000E+00  0.00000000E+00  0.00000000E+00
  0.00000000E+00  0.00000000E+00  0.00000000E+00
  0.00000000E+00  0.00000000E+00  0.00000000E+00
  0.00000000E+00  0.00000000E+00  0.00000000E+00
  0.00000000E+00  0.00000000E+00  0.00000000E+00
  0.00000000E+00  0.00000000E+00  0.00000000E+00
  0.00000000E+00  0.00000000E+00  0.00000000E+00
  0.00000000E+00  0.00000000E+00  0.00000000E+00
  0.00000000E+00  0.00000000E+00  0.00000000E+00
  0.00000000E+00  0.00000000E+00  0.00000000E+00
  0.00000000E+00  0.00000000E+00  0.00000000E+00
  0.00000000E+00  0.00000000E+00  0.00000000E+00
  0.00000000E+00  0.00000000E+00  0.00000000E+00
  0.00000000E+00  0.00000000E+00  0.00000000E+00
  0.00000000E+00  0.00000000E+00  0.00000000E+00
  0.00000000E+00  0.00000000E+00  0.00000000E+00
  0.00000000E+00  0.00000000E+00  0.00000000E+00
  0.00000000E+00  0.00000000E+00  0.00000000E+00
  0.00000000E+00  0.00000000E+00  0.00000000E+00
  0.00000000E+00  0.00000000E+00  0.00000000E+00
  0.00000000E+00  0.00000000E+00  0.00000000E+00
  0.00000000E+00  0.00000000E+00  0.00000000E+00
  0.00000000E+00  0.00000000E+00  0.00000000E+00
  0.00000000E+00  0.00000000E+00  0.00000000E+00
  0.00000000E+00  0.00000000E+00  0.00000000E+00
  0.00000000E+00  0.00000000E+00  0.00000000E+00
  0.00000000E+00  0.00000000E+00  0.00000000E+00
  0.00000000E+00  0.00000000E+00  0.00000000E+00
  0.00000000E+00  0.00000000E+00  0.00000000E+00
  0.00000000E+00  0.00000000E+00  0.00000000E+00
  0.00000000E+00  0.00000000E+00  0.00000000E+00
  0.00000000E+00  0.00000000E+00  0.00000000E+00
  0.00000000E+00  0.00000000E+00  0.00000000E+00
  0.00000000E+00  0.00000000E+00  0.00000000E+00
  0.00000000E+00  0.00000000E+00  0.00000000E+00
  0.00000000E+00  0.00000000E+00  0.00000000E+00
  0.00000000E+00  0.00000000E+00  0.00000000E+00
  0.00000000E+00  0.00000000E+00  0.00000000E+00
  0.00000000E+00  0.00000000E+00  0.00000000E+00
  0.00000000E+00  0.00000000E+00  0.00000000E+00
  0.00000000E+00  0.00000000E+00  0.00000000E+00
  0.00000000E+00  0.00000000E+00  0.00000000E+00
  0.00000000E+00  0.00000000E+00  0.00000000E+00
  0.00000000E+00  0.00000000E+00  0.00000000E+00
  0.00000000E+00  0.00000000E+00  0.00000000E+00
  0.00000000E+00  0.00000000E+00  0.00000000E+00
  0.00000000E+00  0.00000000E+00  0.00000000E+00
  0.00000000E+00  0.00000000E+00  0.00000000E+00
  0.00000000E+00  0.00000000E+00  0.00000000E+00
  0.00000000E+00  0.00000000E+00  0.00000000E+00
  0.00000000E+00  0.00000000E+00  0.00000000E+00
  0.00000000E+00  0.00000000E+00  0.00000000E+00
  0.00000000E+00  0.00000000E+00  0.00000000E+00
  0.00000000E+00  0.00000000E+00  0.00000000E+00
  0.00000000E+00  0.00000000E+00  0.00000000E+00
  0.00000000E+00  0.00000000E+00  0.00000000E+00
  0.00000000E+00  0.00000000E+00  0.00000000E+00
  0.00000000E+00  0.00000000E+00  0.00000000E+00
  0.00000000E+00  0.00000000E+00  0.00000000E+00
  0.00000000E+00  0.00000000E+00  0.00000000E+00
  0.00000000E+00  0.00000000E+00  0.00000000E+00
  0.00000000E+00  0.00000000E+00  0.00000000E+00
  0.00000000E+00  0.00000000E+00  0.00000000E+00
  0.00000000E+00  0.00000000E+00  0.00000000E+00
  0.00000000E+00  0.00000000E+00  0.00000000E+00
  0.00000000E+00  0.00000000E+00  0.00000000E+00
  0.00000000E+00  0.00000000E+00  0.00000000E+00
  0.00000000E+00  0.00000000E+00  0.00000000E+00
  0.00000000E+00  0.00000000E+00  0.00000000E+00
  0.00000000E+00  0.00000000E+00  0.00000000E+00
  0.00000000E+00  0.00000000E+00  0.00000000E+00
  0.00000000E+00  0.00000000E+00  0.00000000E+00
  0.00000000E+00  0.00000000E+00  0.00000000E+00
  0.00000000E+00  0.00000000E+00  0.00000000E+00
  0.00000000E+00  0.00000000E+00  0.00000000E+00
  0.00000000E+00  0.00000000E+00  0.00000000E+00
  0.00000000E+00  0.00000000E+00  0.00000000E+00
  0.00000000E+00  0.00000000E+00  0.00000000E+00
  0.00000000E+00  0.00000000E+00  0.00000000E+00
  0.00000000E+00  0.00000000E+00  0.00000000E+00
  0.00000000E+00  0.00000000E+00  0.00000000E+00
  0.00000000E+00  0.00000000E+00  0.00000000E+00
  0.00000000E+00  0.00000000E+00  0.00000000E+00
  0.00000000E+00  0.00000000E+00  0.00000000E+00
  0.00000000E+00  0.00000000E+00  0.00000000E+00
  0.00000000E+00  0.00000000E+00  0.00000000E+00
  0.00000000E+00  0.00000000E+00  0.00000000E+00
  0.00000000E+00  0.00000000E+00  0.00000000E+00
  0.00000000E+00  0.00000000E+00  0.00000000E+00
  0.00000000E+00  0.00000000E+00  0.00000000E+00
  0.00000000E+00  0.00000000E+00  0.00000000E+00
  0.00000000E+00  0.00000000E+00  0.00000000E+00
  0.00000000E+00  0.00000000E+00  0.00000000E+00
  0.00000000E+00  0.00000000E+00  0.00000000E+00
  0.00000000E+00  0.00000000E+00  0.00000000E+00
  0.00000000E+00  0.00000000E+00  0.00000000E+00
  0.00000000E+00  0.00000000E+00  0.00000000E+00
  0.00000000E+00  0.00000000E+00  0.00000000E+00
  0.00000000E+00  0.00000000E+00  0.00000000E+00
  0.00000000E+00  0.00000000E+00  0.00000000E+00
  0.00000000E+00  0.00000000E+00  0.00000000E+00
  0.00000000E+00  0.00000000E+00  0.00000000E+00
  0.00000000E+00  0.00000000E+00  0.00000000E+00
  0.00000000E+00  0.00000000E+00  0.00000000E+00
