title                                   
   1.00000000000000     
    -1.4470493852410606   -5.7778682625175888   -2.3016394677953209
     7.5206593666180703    0.8122147131467149   -4.7415298912235029
     9.2800899889409312   -5.3921436443194581   14.5336910091683222
   Fe   Li   O 
    14    42    49
Direct
  0.4276579985723802  0.8489022139168071  0.0160151118954443
  0.9727996943378634  0.2937133180481639  0.0886615622388199
  0.5630829554552914  0.4399795394436687  0.0801051615686454
  0.7747938552264720  0.9698239446457595  0.1274228963087926
  0.7685563975955205  0.6968382772844560  0.5321557409895524
  0.1017989449824061  0.1493713770326804  0.2319185010467353
  0.0267677568403918  0.6931939594068178  0.4057456808955807
  0.3223454826809473  0.0174018123001213  0.3923860222223859
  0.2208527852056847  0.3159714904102542  0.4817255220331150
  0.6820234110585927  0.5888071746830527  0.7982101230819525
  0.0283816278360274  0.0266768409513290  0.5170893473511801
  0.4896601796007349  0.2842891631303165  0.8375459851659968
  0.0722830962183801  0.4614937644731072  0.8351247538328913
  0.6150199277733284  0.1414102219578521  0.9807090204035253
  0.7831969895120039  0.7019705706621218  0.0456923458590629
  0.8994951689791200  0.5643385206415822  0.1738142521999554
  0.8406786452809371  0.8218762276215309  0.2542270590663000
  0.5426091128208556  0.7086720870319160  0.1648177014140807
  0.1712587548098863  0.5432132762779939  0.0358653894684106
  0.1781464564223271  0.8840469672031500  0.1464823958579915
  0.7100066547205161  0.2951167778776799  0.2226363367200389
  0.6567705832796605  0.5650757222873951  0.2915579307750286
  0.5942013003424886  0.8185329081225672  0.3702182398356043
  0.3679577685133691  0.1305505242244933  0.1098255568673845
  0.3373501194078802  0.4031546523899622  0.2087978449639172
  0.2939863606967170  0.6890129504922481  0.2943602661241644
  0.0147242721767100  0.0188316929553121  0.9779129884448984
  0.8413971285921242  0.1672710703065649  0.3641395031297278
  0.7995142463355591  0.4246740381163267  0.4367227062978621
  0.5538249685331752  0.0021467740976848  0.2636183308738214
  0.4561231402997916  0.2943348713375168  0.3386983306264758
  0.4267400871388928  0.5505920179539543  0.4209486051927152
  0.3621151034637124  0.8503926867116599  0.5401562608848858
  0.0431865988414446  0.4394709404148852  0.3186684674216326
  0.9563715327488096  0.2766611018389908  0.5897037997033461
  0.9206589234007337  0.6120011318542815  0.6728299619977779
  0.8881927079514235  0.8771761970427402  0.7729492459616746
  0.6163365774946976  0.1823998161308882  0.5011013258522694
  0.5821749394299184  0.4252976368499259  0.5867046575994769
  0.5384175374351546  0.7240769900609998  0.6654864356411514
  0.1851600433725565  0.5715945901401394  0.5628136322005249
  0.1295842810263317  0.8686807139283698  0.6534022659291215
  0.7477353476366296  0.0161395021866828  0.6405576498104919
  0.6907480973379477  0.2865355441700214  0.7142777866224248
  0.6580435811740659  0.8421923645534899  0.8852268542378964
  0.3747855223722070  0.1530310947358314  0.6197337537759334
  0.3463346305091484  0.4520721407158646  0.6919233869358945
  0.2762171159061833  0.7283769059098758  0.7656701231752652
  0.8382138434371516  0.1244190378672325  0.8444966873264950
  0.8192380645798868  0.4423538724820263  0.9469681377881042
  0.4993365087912570  0.9991714577696222  0.7496685561258701
  0.4353929498829063  0.5775224699944935  0.9292708548849916
  0.1105687936817583  0.1080562207644498  0.7228394177658072
  0.0312195894460423  0.7365314660827463  0.8916909174054736
  0.2690599952285638  0.9690243629291583  0.8724423426679885
  0.2146175840206050  0.2962717815699801  0.9731532308463354
  0.4676294506715657  0.6418583167914319  0.0456990733868530
  0.6697232635499355  0.2211174592235342  0.0907012205359949
  0.6051146110287403  0.4929387999222221  0.1802146887719688
  0.5443328735402765  0.7825495787551157  0.2653280039378147
  0.2662804114182970  0.3564654495713430  0.0794111060337859
  0.8612372826776274  0.4962095647645388  0.0617837282284783
  0.8980035911924574  0.7840906144014902  0.1493788799917076
  0.4604939690776702  0.9043576287085108  0.1195898620445687
  0.3822583350980244  0.1746040720599433  0.2292298825883147
  0.3663110017128460  0.4874191821373161  0.3117334475600284
  0.2797956648107118  0.8051537914607697  0.3925487887977068
  0.0638326454849267  0.0799485499050256  0.1280299523486380
  0.0189251047115426  0.3485589635106007  0.1978079410703794
  0.9735439249858069  0.6577857308954356  0.3056423534066001
  0.7276557321669841  0.9284259533942956  0.0127803862442381
  0.6014763703531357  0.0356713626369328  0.3823490440154123
  0.4820888737894846  0.3524599361288466  0.4587944966670324
  0.4958351011538945  0.6651491044337743  0.5281437519770411
  0.1441824761655478  0.1503493090742324  0.3386263951966796
  0.1179712900972395  0.4981147278968431  0.4368046000770006
  0.0308233499753966  0.8095235033921431  0.5019454987684879
  0.8287836887238704  0.0530215978902882  0.2333391650491668
  0.7452702305805918  0.3594256269396688  0.3287481001736837
  0.7413549813006227  0.6577235617104609  0.4234116804305476
  0.6722132887601460  0.2200504089686499  0.6103001236136520
  0.6400733213692176  0.5178369771463218  0.6995158712600202
  0.5967681647261144  0.7720319858278485  0.7770708624235653
  0.3115674888645465  0.0815407071470262  0.4948239465937800
  0.2608118162658699  0.3646415806453776  0.5830844137049305
  0.2308765617578494  0.6629878134625681  0.6605693305542339
  0.9379502522901557  0.2152786120877247  0.4768993477346755
  0.8595585239135172  0.5249295125971932  0.5599612632987321
  0.8128173422807972  0.7946981170259093  0.6190046074964903
  0.4286018886724319  0.9242261027122630  0.6411683248506070
  0.3985449589736986  0.2210323243462715  0.7430601662418255
  0.3532223828542853  0.4647032767321164  0.8125506665534283
  0.3468317825167037  0.7866211938553810  0.9217812591023586
  0.0531091273175192  0.0728761641918500  0.6150766453041231
  0.9967764490827187  0.6347576808999041  0.7884633309688049
  0.5524558106810605  0.0939930760728141  0.8700106846457347
  0.5043668256431906  0.3349702264906085  0.9433047078174860
  0.1887401059546787  0.9263231821535207  0.7640488891440195
  0.1243753546654916  0.4893671868921068  0.9343020907544030
  0.8213883511504680  0.0870868303192035  0.7412747320503821
  0.7835369871501547  0.3701280550780185  0.8248935121961016
  0.7295338319915212  0.6336249858452698  0.8992327772830939
  0.3313038984662080  0.0422042884796712  0.9971516773137570
  0.9633439348584792  0.9468952688204429  0.8756784235257693
  0.9213058708250880  0.2178229968940774  0.9860576186672079
 
  0.00000000E+00  0.00000000E+00  0.00000000E+00
  0.00000000E+00  0.00000000E+00  0.00000000E+00
  0.00000000E+00  0.00000000E+00  0.00000000E+00
  0.00000000E+00  0.00000000E+00  0.00000000E+00
  0.00000000E+00  0.00000000E+00  0.00000000E+00
  0.00000000E+00  0.00000000E+00  0.00000000E+00
  0.00000000E+00  0.00000000E+00  0.00000000E+00
  0.00000000E+00  0.00000000E+00  0.00000000E+00
  0.00000000E+00  0.00000000E+00  0.00000000E+00
  0.00000000E+00  0.00000000E+00  0.00000000E+00
  0.00000000E+00  0.00000000E+00  0.00000000E+00
  0.00000000E+00  0.00000000E+00  0.00000000E+00
  0.00000000E+00  0.00000000E+00  0.00000000E+00
  0.00000000E+00  0.00000000E+00  0.00000000E+00
  0.00000000E+00  0.00000000E+00  0.00000000E+00
  0.00000000E+00  0.00000000E+00  0.00000000E+00
  0.00000000E+00  0.00000000E+00  0.00000000E+00
  0.00000000E+00  0.00000000E+00  0.00000000E+00
  0.00000000E+00  0.00000000E+00  0.00000000E+00
  0.00000000E+00  0.00000000E+00  0.00000000E+00
  0.00000000E+00  0.00000000E+00  0.00000000E+00
  0.00000000E+00  0.00000000E+00  0.00000000E+00
  0.00000000E+00  0.00000000E+00  0.00000000E+00
  0.00000000E+00  0.00000000E+00  0.00000000E+00
  0.00000000E+00  0.00000000E+00  0.00000000E+00
  0.00000000E+00  0.00000000E+00  0.00000000E+00
  0.00000000E+00  0.00000000E+00  0.00000000E+00
  0.00000000E+00  0.00000000E+00  0.00000000E+00
  0.00000000E+00  0.00000000E+00  0.00000000E+00
  0.00000000E+00  0.00000000E+00  0.00000000E+00
  0.00000000E+00  0.00000000E+00  0.00000000E+00
  0.00000000E+00  0.00000000E+00  0.00000000E+00
  0.00000000E+00  0.00000000E+00  0.00000000E+00
  0.00000000E+00  0.00000000E+00  0.00000000E+00
  0.00000000E+00  0.00000000E+00  0.00000000E+00
  0.00000000E+00  0.00000000E+00  0.00000000E+00
  0.00000000E+00  0.00000000E+00  0.00000000E+00
  0.00000000E+00  0.00000000E+00  0.00000000E+00
  0.00000000E+00  0.00000000E+00  0.00000000E+00
  0.00000000E+00  0.00000000E+00  0.00000000E+00
  0.00000000E+00  0.00000000E+00  0.00000000E+00
  0.00000000E+00  0.00000000E+00  0.00000000E+00
  0.00000000E+00  0.00000000E+00  0.00000000E+00
  0.00000000E+00  0.00000000E+00  0.00000000E+00
  0.00000000E+00  0.00000000E+00  0.00000000E+00
  0.00000000E+00  0.00000000E+00  0.00000000E+00
  0.00000000E+00  0.00000000E+00  0.00000000E+00
  0.00000000E+00  0.00000000E+00  0.00000000E+00
  0.00000000E+00  0.00000000E+00  0.00000000E+00
  0.00000000E+00  0.00000000E+00  0.00000000E+00
  0.00000000E+00  0.00000000E+00  0.00000000E+00
  0.00000000E+00  0.00000000E+00  0.00000000E+00
  0.00000000E+00  0.00000000E+00  0.00000000E+00
  0.00000000E+00  0.00000000E+00  0.00000000E+00
  0.00000000E+00  0.00000000E+00  0.00000000E+00
  0.00000000E+00  0.00000000E+00  0.00000000E+00
  0.00000000E+00  0.00000000E+00  0.00000000E+00
  0.00000000E+00  0.00000000E+00  0.00000000E+00
  0.00000000E+00  0.00000000E+00  0.00000000E+00
  0.00000000E+00  0.00000000E+00  0.00000000E+00
  0.00000000E+00  0.00000000E+00  0.00000000E+00
  0.00000000E+00  0.00000000E+00  0.00000000E+00
  0.00000000E+00  0.00000000E+00  0.00000000E+00
  0.00000000E+00  0.00000000E+00  0.00000000E+00
  0.00000000E+00  0.00000000E+00  0.00000000E+00
  0.00000000E+00  0.00000000E+00  0.00000000E+00
  0.00000000E+00  0.00000000E+00  0.00000000E+00
  0.00000000E+00  0.00000000E+00  0.00000000E+00
  0.00000000E+00  0.00000000E+00  0.00000000E+00
  0.00000000E+00  0.00000000E+00  0.00000000E+00
  0.00000000E+00  0.00000000E+00  0.00000000E+00
  0.00000000E+00  0.00000000E+00  0.00000000E+00
  0.00000000E+00  0.00000000E+00  0.00000000E+00
  0.00000000E+00  0.00000000E+00  0.00000000E+00
  0.00000000E+00  0.00000000E+00  0.00000000E+00
  0.00000000E+00  0.00000000E+00  0.00000000E+00
  0.00000000E+00  0.00000000E+00  0.00000000E+00
  0.00000000E+00  0.00000000E+00  0.00000000E+00
  0.00000000E+00  0.00000000E+00  0.00000000E+00
  0.00000000E+00  0.00000000E+00  0.00000000E+00
  0.00000000E+00  0.00000000E+00  0.00000000E+00
  0.00000000E+00  0.00000000E+00  0.00000000E+00
  0.00000000E+00  0.00000000E+00  0.00000000E+00
  0.00000000E+00  0.00000000E+00  0.00000000E+00
  0.00000000E+00  0.00000000E+00  0.00000000E+00
  0.00000000E+00  0.00000000E+00  0.00000000E+00
  0.00000000E+00  0.00000000E+00  0.00000000E+00
  0.00000000E+00  0.00000000E+00  0.00000000E+00
  0.00000000E+00  0.00000000E+00  0.00000000E+00
  0.00000000E+00  0.00000000E+00  0.00000000E+00
  0.00000000E+00  0.00000000E+00  0.00000000E+00
  0.00000000E+00  0.00000000E+00  0.00000000E+00
  0.00000000E+00  0.00000000E+00  0.00000000E+00
  0.00000000E+00  0.00000000E+00  0.00000000E+00
  0.00000000E+00  0.00000000E+00  0.00000000E+00
  0.00000000E+00  0.00000000E+00  0.00000000E+00
  0.00000000E+00  0.00000000E+00  0.00000000E+00
  0.00000000E+00  0.00000000E+00  0.00000000E+00
  0.00000000E+00  0.00000000E+00  0.00000000E+00
  0.00000000E+00  0.00000000E+00  0.00000000E+00
  0.00000000E+00  0.00000000E+00  0.00000000E+00
  0.00000000E+00  0.00000000E+00  0.00000000E+00
  0.00000000E+00  0.00000000E+00  0.00000000E+00
  0.00000000E+00  0.00000000E+00  0.00000000E+00
  0.00000000E+00  0.00000000E+00  0.00000000E+00
